unsat
(define-fun q1 () Bool false)
(define-fun q2 () Bool true)
(define-fun g1 ((x Obj)) Bool (labelOf x oven))
(define-fun g2 ((x Obj)) Bool (labelOf x sink))
(define-fun f ((x1 Obj) (x2 Obj)) Bool (labelOf x2 sink))
(define-fun c1 () Bool false)
(define-fun c2 () Bool false)
(define-fun c3 () Bool true)
89.78user 2.64system 1:32.43elapsed 99%CPU (0avgtext+0avgdata 165576maxresident)k
0inputs+0outputs (0major+38217minor)pagefaults 0swaps
kitchen_abc-1.12.1e
